NAME : rnd49_50.tsp
TYPE : TSP
DIMENSION : 50
EDGE_WEIGHT_TYPE : EUC_2D
NODE_COORD_SECTION
1 145 650
2 992 549
3 105 71
4 606 473
5 396 309
6 265 965
7 46 408
8 356 323
9 449 716
10 950 767
11 999 303
12 715 326
13 5 656
14 854 977
15 170 352
16 779 774
17 17 754
18 143 973
19 42 423
20 523 300
21 871 674
22 340 901
23 653 68
24 138 310
25 187 47
26 606 685
27 191 151
28 688 159
29 948 929
30 323 616
31 32 794
32 235 140
33 221 942
34 386 640
35 67 887
36 669 215
37 746 196
38 666 425
39 302 915
40 271 808
41 692 718
42 359 212
43 714 248
44 722 704
45 407 973
46 149 81
47 932 514
48 843 342
49 490 491
50 990 273
